p cnf 229 884
-19 -5 0 
-19 -4 0 
4 19 5 0 
-20 -5 0 
-20 4 0 
5 -4 20 0 
-21 5 0 
-21 -4 0 
4 -5 21 0 
5 -22 0 
4 -22 0 
22 -4 -5 0 
-23 19 0 
-23 -3 0 
3 23 -19 0 
-24 19 0 
-24 3 0 
-19 -3 24 0 
-25 20 0 
-25 -3 0 
-20 25 3 0 
-26 20 0 
-26 3 0 
-20 -3 26 0 
-27 21 0 
-27 -3 0 
-21 27 3 0 
-28 21 0 
-28 3 0 
-21 -3 28 0 
-29 22 0 
-29 -3 0 
3 29 -22 0 
22 -30 0 
3 -30 0 
30 -3 -22 0 
-31 23 0 
-31 -2 0 
2 -23 31 0 
-32 23 0 
2 -32 0 
-23 -2 32 0 
-33 24 0 
-33 -2 0 
2 -24 33 0 
-34 24 0 
-34 2 0 
-24 -2 34 0 
-35 25 0 
-35 -2 0 
-25 2 35 0 
-36 25 0 
-36 2 0 
-25 -2 36 0 
-37 26 0 
-37 -2 0 
-26 2 37 0 
-38 26 0 
-38 2 0 
-26 -2 38 0 
-39 27 0 
-39 -2 0 
-27 2 39 0 
-40 27 0 
-40 2 0 
-27 -2 40 0 
-41 28 0 
-41 -2 0 
-28 2 41 0 
-42 28 0 
-42 2 0 
-28 -2 42 0 
-43 29 0 
-43 -2 0 
-29 2 43 0 
-44 29 0 
-44 2 0 
-29 -2 44 0 
-45 30 0 
-45 -2 0 
2 -30 45 0 
30 -46 0 
2 -46 0 
46 -2 -30 0 
-31 1 0 
-31 -1 0 
1 -32 0 
-32 -1 0 
-47 33 0 
-47 -1 0 
1 -33 47 0 
-48 33 0 
-48 1 0 
-33 -1 48 0 
-49 34 0 
-49 -1 0 
-34 1 49 0 
-50 34 0 
-50 1 0 
-34 -1 50 0 
-51 35 0 
-51 -1 0 
-35 1 51 0 
-52 35 0 
-52 1 0 
-35 -1 52 0 
-53 36 0 
-53 -1 0 
-36 1 53 0 
-54 36 0 
-54 1 0 
-36 -1 54 0 
-55 37 0 
-55 -1 0 
-37 1 55 0 
-56 37 0 
-56 1 0 
-37 -1 56 0 
-57 38 0 
-57 -1 0 
-38 1 57 0 
-58 38 0 
-58 1 0 
-38 -1 58 0 
-59 39 0 
-59 -1 0 
-39 1 59 0 
-60 39 0 
-60 1 0 
-39 -1 60 0 
-61 40 0 
-61 -1 0 
-40 1 61 0 
-62 40 0 
-62 1 0 
-40 -1 62 0 
-63 41 0 
-63 -1 0 
-41 1 63 0 
-64 41 0 
-64 1 0 
-41 -1 64 0 
-65 42 0 
-65 -1 0 
-42 1 65 0 
-66 42 0 
-66 1 0 
-42 -1 66 0 
-67 43 0 
-67 -1 0 
-43 1 67 0 
-68 43 0 
-68 1 0 
-43 -1 68 0 
-69 44 0 
-69 -1 0 
-44 1 69 0 
-70 44 0 
-70 1 0 
-44 -1 70 0 
-71 45 0 
-71 -1 0 
-45 1 71 0 
-72 45 0 
-72 1 0 
-45 -1 72 0 
-73 46 0 
-73 -1 0 
1 -46 73 0 
46 -74 0 
1 -74 0 
74 -46 -1 0 
-10 -75 0 
-9 -75 0 
75 9 10 0 
-10 -76 0 
-76 9 0 
-9 10 76 0 
-77 10 0 
-9 -77 0 
-10 9 77 0 
-78 10 0 
-78 9 0 
-9 -10 78 0 
75 -79 0 
-8 -79 0 
79 8 -75 0 
75 -80 0 
-80 8 0 
-8 -75 80 0 
-81 76 0 
-8 -81 0 
-76 81 8 0 
-82 76 0 
-82 8 0 
-8 -76 82 0 
-83 77 0 
-8 -83 0 
-77 83 8 0 
-84 77 0 
-84 8 0 
-8 -77 84 0 
-85 78 0 
-8 -85 0 
-78 85 8 0 
-86 78 0 
-86 8 0 
-8 -78 86 0 
79 -87 0 
-87 -7 0 
7 87 -79 0 
79 -88 0 
7 -88 0 
88 -7 -79 0 
-89 80 0 
-89 -7 0 
-80 89 7 0 
-90 80 0 
-90 7 0 
-80 -7 90 0 
-91 81 0 
-91 -7 0 
-81 91 7 0 
-92 81 0 
-92 7 0 
-81 -7 92 0 
-93 82 0 
-93 -7 0 
-82 93 7 0 
-94 82 0 
-94 7 0 
-82 -7 94 0 
-95 83 0 
-95 -7 0 
-83 95 7 0 
-96 83 0 
-96 7 0 
-83 -7 96 0 
-97 84 0 
-97 -7 0 
-84 97 7 0 
-98 84 0 
-98 7 0 
-84 -7 98 0 
-99 85 0 
-99 -7 0 
-85 99 7 0 
-100 85 0 
-100 7 0 
-85 -7 100 0 
-101 86 0 
-101 -7 0 
-86 101 7 0 
-102 86 0 
-102 7 0 
-86 -7 102 0 
-87 6 0 
-87 -6 0 
6 -88 0 
88 -103 0 
-103 6 0 
103 -6 -88 0 
-104 89 0 
-104 -6 0 
-89 104 6 0 
-105 89 0 
-105 6 0 
-89 -6 105 0 
-106 90 0 
-106 -6 0 
-90 106 6 0 
-107 90 0 
-107 6 0 
-90 -6 107 0 
-108 91 0 
-108 -6 0 
-91 108 6 0 
-91 -6 0 
-92 6 0 
-92 -6 0 
-93 6 0 
-93 -6 0 
-94 6 0 
-94 -6 0 
-95 6 0 
-95 -6 0 
-96 6 0 
-96 -6 0 
-97 6 0 
-97 -6 0 
-98 6 0 
-98 -6 0 
-99 6 0 
-99 -6 0 
-100 6 0 
-100 -6 0 
-101 6 0 
-101 -6 0 
-102 6 0 
-102 -6 0 
103 -109 0 
109 -103 0 
-109 110 0 
-110 109 0 
-47 -111 0 
111 47 0 
-112 104 0 
-112 111 0 
-104 112 -111 0 
-110 113 0 
-112 113 0 
-113 110 112 0 
111 -114 0 
-48 -114 0 
114 48 -111 0 
-115 105 0 
-115 114 0 
-105 115 -114 0 
-113 116 0 
-115 116 0 
-116 113 115 0 
114 -117 0 
-49 -117 0 
117 49 -114 0 
-118 106 0 
-118 117 0 
-106 118 -117 0 
-116 119 0 
-118 119 0 
-119 116 118 0 
117 -120 0 
-50 -120 0 
120 50 -117 0 
-121 107 0 
-121 120 0 
-107 121 -120 0 
-119 122 0 
-121 122 0 
-122 119 121 0 
120 -123 0 
-51 -123 0 
123 51 -120 0 
-124 108 0 
-124 123 0 
-108 124 -123 0 
124 122 0 
123 -125 0 
-52 -125 0 
125 52 -123 0 
125 -126 0 
-53 -126 0 
126 53 -125 0 
126 -127 0 
-54 -127 0 
127 54 -126 0 
127 -128 0 
-55 -128 0 
128 55 -127 0 
128 -129 0 
-56 -129 0 
129 56 -128 0 
129 -130 0 
-57 -130 0 
130 57 -129 0 
130 -131 0 
-58 -131 0 
131 58 -130 0 
131 -132 0 
-59 -132 0 
132 59 -131 0 
132 -133 0 
-60 -133 0 
133 60 -132 0 
133 -134 0 
-61 -134 0 
134 61 -133 0 
134 -135 0 
-62 -135 0 
135 62 -134 0 
135 -136 0 
-63 -136 0 
136 63 -135 0 
136 -137 0 
-64 -137 0 
137 64 -136 0 
137 -138 0 
-65 -138 0 
138 65 -137 0 
138 -139 0 
-66 -139 0 
139 66 -138 0 
139 -140 0 
-67 -140 0 
140 67 -139 0 
140 -141 0 
-68 -141 0 
141 68 -140 0 
141 -142 0 
-69 -142 0 
142 69 -141 0 
142 -143 0 
-70 -143 0 
143 70 -142 0 
143 -144 0 
-71 -144 0 
144 71 -143 0 
144 -145 0 
-72 -145 0 
145 72 -144 0 
-146 -103 0 
103 146 0 
-147 146 0 
-104 -147 0 
-146 104 147 0 
-148 147 0 
-105 -148 0 
-147 105 148 0 
-149 148 0 
-106 -149 0 
-148 106 149 0 
-150 149 0 
-107 -150 0 
-149 150 107 0 
-150 108 0 
-11 -12 -151 0 
12 -151 11 0 
151 -12 11 0 
-11 12 151 0 
-104 146 0 
-105 146 0 
-106 146 0 
-107 146 0 
-108 146 0 
12 152 0 
-11 152 0 
-152 -12 11 0 
-152 -151 -153 0 
151 152 -153 0 
153 152 -151 0 
151 -152 153 0 
-13 151 -154 0 
153 13 -154 0 
151 153 -154 0 
154 -153 -151 0 
154 -153 13 0 
-13 -151 154 0 
-105 147 0 
-106 147 0 
-107 147 0 
-108 147 0 
-13 153 -155 0 
-155 152 13 0 
153 152 -155 0 
-152 -153 155 0 
-152 13 155 0 
-13 -153 155 0 
-155 -154 -156 0 
154 155 -156 0 
156 155 -154 0 
154 -155 156 0 
154 -14 -157 0 
14 156 -157 0 
154 156 -157 0 
157 -156 -154 0 
14 -156 157 0 
157 -14 -154 0 
-106 148 0 
-107 148 0 
-108 148 0 
156 -14 -158 0 
14 -158 155 0 
156 155 -158 0 
-155 -156 158 0 
14 -155 158 0 
158 -14 -156 0 
-159 -158 -157 0 
157 158 -159 0 
158 -157 159 0 
157 -158 159 0 
-15 157 -160 0 
-160 15 159 0 
157 159 -160 0 
-159 160 -157 0 
-159 15 160 0 
-15 160 -157 0 
-107 149 0 
-108 149 0 
-15 -161 159 0 
158 15 -161 0 
158 159 -161 0 
-159 -158 161 0 
161 15 -158 0 
-15 -159 161 0 
-160 -161 -162 0 
161 160 -162 0 
-160 161 162 0 
162 -161 160 0 
-16 -163 160 0 
162 16 -163 0 
162 -163 160 0 
-160 -162 163 0 
163 16 -162 0 
-16 -160 163 0 
-108 150 0 
-16 162 -164 0 
161 16 -164 0 
161 162 -164 0 
164 -162 -161 0 
164 16 -161 0 
-16 164 -162 0 
-165 -163 -164 0 
163 164 -165 0 
164 -163 165 0 
163 165 -164 0 
-17 163 -166 0 
-166 17 165 0 
163 165 -166 0 
-165 -163 166 0 
-165 17 166 0 
-17 166 -163 0 
-17 -167 165 0 
164 17 -167 0 
164 165 -167 0 
-165 167 -164 0 
167 17 -164 0 
-17 -165 167 0 
-166 -167 -168 0 
167 166 -168 0 
-166 167 168 0 
168 -167 166 0 
-18 -169 166 0 
168 18 -169 0 
168 -169 166 0 
-166 -168 169 0 
169 18 -168 0 
-18 -166 169 0 
-150 169 -170 0 
-170 166 150 0 
169 -170 166 0 
-166 -169 170 0 
-166 170 150 0 
-150 -169 170 0 
-149 170 -171 0 
163 -171 149 0 
163 170 -171 0 
-170 171 -163 0 
171 -163 149 0 
-149 -170 171 0 
-148 171 -172 0 
-172 160 148 0 
171 -172 160 0 
-160 -171 172 0 
-160 172 148 0 
-148 -171 172 0 
-147 172 -173 0 
157 -173 147 0 
157 172 -173 0 
-172 173 -157 0 
173 -157 147 0 
-147 -172 173 0 
-146 173 0 
154 146 0 
154 173 0 
174 -12 0 
174 11 0 
-11 12 -174 0 
-175 -151 -174 0 
151 174 -175 0 
151 175 -174 0 
174 -151 175 0 
-13 174 -176 0 
-176 13 175 0 
174 175 -176 0 
-175 176 -174 0 
-175 13 176 0 
-13 176 -174 0 
-13 175 -177 0 
151 13 -177 0 
151 175 -177 0 
-175 -151 177 0 
177 -151 13 0 
-13 -175 177 0 
-176 -177 -178 0 
177 176 -178 0 
-176 177 178 0 
178 -177 176 0 
-179 -14 176 0 
14 178 -179 0 
178 -179 176 0 
-176 -178 179 0 
14 -178 179 0 
-176 -14 179 0 
178 -14 -180 0 
14 177 -180 0 
177 178 -180 0 
180 -178 -177 0 
14 180 -177 0 
180 -14 -178 0 
-179 -180 -181 0 
180 179 -181 0 
-179 180 181 0 
181 179 -180 0 
-15 -182 179 0 
181 15 -182 0 
181 179 -182 0 
-179 -181 182 0 
182 15 -181 0 
-15 -179 182 0 
-15 181 -183 0 
180 15 -183 0 
180 181 -183 0 
183 -181 -180 0 
183 15 -180 0 
-15 183 -181 0 
-184 -182 -183 0 
182 183 -184 0 
183 -182 184 0 
182 184 -183 0 
-16 182 -185 0 
-185 16 184 0 
182 184 -185 0 
-184 -182 185 0 
-184 16 185 0 
-16 185 -182 0 
-16 -186 184 0 
183 16 -186 0 
183 184 -186 0 
-184 186 -183 0 
186 16 -183 0 
-16 -184 186 0 
-185 -186 -187 0 
186 185 -187 0 
-185 186 187 0 
187 -186 185 0 
-17 -188 185 0 
187 17 -188 0 
187 -188 185 0 
-185 -187 188 0 
188 17 -187 0 
-17 -185 188 0 
-17 187 -189 0 
186 17 -189 0 
186 187 -189 0 
189 -187 -186 0 
189 17 -186 0 
-17 189 -187 0 
-190 -188 -189 0 
188 189 -190 0 
189 -188 190 0 
188 190 -189 0 
-18 188 -191 0 
-191 18 190 0 
188 190 -191 0 
-190 -188 191 0 
-190 18 191 0 
-18 191 -188 0 
-150 191 -192 0 
188 -192 150 0 
188 191 -192 0 
-191 192 -188 0 
192 -188 150 0 
-150 -191 192 0 
-149 192 -193 0 
-193 185 149 0 
192 -193 185 0 
-185 -192 193 0 
-185 193 149 0 
-149 -192 193 0 
-148 193 -194 0 
182 -194 148 0 
182 193 -194 0 
-193 194 -182 0 
194 -182 148 0 
-148 -193 194 0 
-147 194 -195 0 
-195 179 147 0 
194 -195 179 0 
-179 -194 195 0 
-179 195 147 0 
-147 -194 195 0 
-176 -195 0 
-176 146 0 
-146 -195 0 
-152 -196 -174 0 
174 152 -196 0 
-152 174 196 0 
196 152 -174 0 
-13 152 -197 0 
196 13 -197 0 
196 152 -197 0 
-152 -196 197 0 
197 -196 13 0 
-13 -152 197 0 
-13 196 -198 0 
174 13 -198 0 
174 196 -198 0 
198 -196 -174 0 
198 13 -174 0 
-13 -196 198 0 
-199 -197 -198 0 
197 198 -199 0 
198 -197 199 0 
197 -198 199 0 
197 -14 -200 0 
14 199 -200 0 
197 199 -200 0 
-199 -197 200 0 
14 -199 200 0 
200 -14 -197 0 
-201 -14 199 0 
14 198 -201 0 
198 199 -201 0 
-199 201 -198 0 
14 201 -198 0 
-199 -14 201 0 
-201 -200 -202 0 
200 -202 201 0 
202 -200 201 0 
200 -201 202 0 
-15 200 -203 0 
202 15 -203 0 
200 202 -203 0 
203 -202 -200 0 
203 15 -202 0 
-15 203 -200 0 
-15 202 -204 0 
-204 15 201 0 
202 -204 201 0 
-201 -202 204 0 
-201 15 204 0 
-15 204 -202 0 
-204 -205 -203 0 
203 204 -205 0 
205 204 -203 0 
203 -204 205 0 
-16 203 -206 0 
205 16 -206 0 
203 205 -206 0 
206 -205 -203 0 
206 16 -205 0 
-16 206 -203 0 
-16 205 -207 0 
-207 16 204 0 
205 204 -207 0 
-204 -205 207 0 
-204 16 207 0 
-16 207 -205 0 
-207 -208 -206 0 
206 207 -208 0 
208 207 -206 0 
206 -207 208 0 
-17 206 -209 0 
208 17 -209 0 
206 208 -209 0 
209 -208 -206 0 
209 17 -208 0 
-17 209 -206 0 
-17 208 -210 0 
-210 17 207 0 
208 207 -210 0 
-207 -208 210 0 
-207 17 210 0 
-17 210 -208 0 
-210 -211 -209 0 
209 210 -211 0 
211 210 -209 0 
209 -210 211 0 
-18 209 -212 0 
211 18 -212 0 
209 211 -212 0 
212 -211 -209 0 
212 18 -211 0 
-18 212 -209 0 
-150 212 -213 0 
209 -213 150 0 
209 212 -213 0 
213 -212 -209 0 
213 -209 150 0 
-150 -212 213 0 
-149 213 -214 0 
206 -214 149 0 
206 213 -214 0 
214 -213 -206 0 
214 -206 149 0 
-149 -213 214 0 
-148 214 -215 0 
203 -215 148 0 
203 214 -215 0 
215 -214 -203 0 
215 -203 148 0 
-148 -214 215 0 
-147 215 -216 0 
200 -216 147 0 
200 215 -216 0 
216 -215 -200 0 
216 -200 147 0 
-147 -215 216 0 
-146 216 0 
197 146 0 
197 216 0 
-217 18 0 
-217 150 0 
-18 -150 217 0 
168 -217 -218 0 
167 -218 217 0 
167 168 -218 0 
218 -168 -167 0 
218 -167 217 0 
-217 -168 218 0 
-149 218 -219 0 
164 -219 149 0 
164 218 -219 0 
219 -218 -164 0 
219 -164 149 0 
-149 -218 219 0 
-148 219 -220 0 
161 -220 148 0 
161 219 -220 0 
220 -219 -161 0 
220 -161 148 0 
-148 -219 220 0 
-147 220 -221 0 
158 -221 147 0 
158 220 -221 0 
221 -220 -158 0 
221 -158 147 0 
-147 -220 221 0 
-155 -221 0 
-155 146 0 
-146 -221 0 
-217 190 -222 0 
189 -222 217 0 
189 190 -222 0 
-190 222 -189 0 
222 -189 217 0 
-190 -217 222 0 
-149 222 -223 0 
186 -223 149 0 
186 222 -223 0 
223 -222 -186 0 
223 -186 149 0 
-149 -222 223 0 
-148 223 -224 0 
183 -224 148 0 
183 223 -224 0 
224 -223 -183 0 
224 -183 148 0 
-148 -223 224 0 
-147 224 -225 0 
180 -225 147 0 
180 224 -225 0 
225 -224 -180 0 
225 -180 147 0 
-147 -224 225 0 
-146 225 0 
177 146 0 
177 225 0 
211 -217 -226 0 
-226 210 217 0 
211 210 -226 0 
-210 -211 226 0 
-210 226 217 0 
-217 -211 226 0 
-149 226 -227 0 
-227 207 149 0 
-227 226 207 0 
-207 -226 227 0 
-207 227 149 0 
-149 -226 227 0 
-148 227 -228 0 
-228 204 148 0 
-228 227 204 0 
-204 -227 228 0 
-204 228 148 0 
-148 -227 228 0 
-147 228 -229 0 
-229 201 147 0 
-229 228 201 0 
-201 -228 229 0 
-201 147 229 0 
-147 -228 229 0 
-146 229 0 
198 146 0 
198 229 0 
